0 7895832
7 7836876
8 7827735
10 7756004
11 7699756
13 7694738
17 7637642
20 7636563
23 7627605
24 7553099
26 7512326
37 7495738
38 7483050
45 7482010
47 7464899
50 7410313
55 7391808
59 7383637
61 7370477
67 7369032
74 7368745
91 7347212
97 7346960
109 7297434
115 7285372
120 7254302
137 7254068
155 7253392
162 7241419
176 7233487
193 7226497
224 7225871
286 7225195
291 7215487
315 7209245
399 7203853
447 7203692
457 7202314
468 7202279
476 7202092
497 7202038
577 7201952
606 7201587
661 7199494
674 7199312
676 7199290
697 7182011
734 7180695
999 7180671
1232 7178123
1371 7167424
1375 7167229
1395 7167179
1444 7143610
1446 7143506
1486 7143477
1549 7143430
2353 7143423
